conditionSynthesis/results/repairExamples_all_1h_nogrammar/boundaries/sv-comp/ntdrivers-simplified/cdaudio_simpl1_synth_cil-1_unknown.boundaries.out
(
(define-fun Condition_0 ((mainv%NP_0 Int) (mainv%DC_0 Int) (mainv%SKIP1_0 Int) (mainv%SKIP2_0 Int) (mainv%MPR1_0 Int) (mainv%MPR3_0 Int) (mainv%IPC_0 Int) (mainv%s_0 Int) (mainv%pended_0 Int) (mainv%compRegistered_0 Int) (mainv%lowerDriverReturn_0 Int) (mainv%setEventCalled_0 Int) (mainv%myStatus_0 Int) (mainv%routine_0 Int) (mainv%_3_0 Int) (mainv%sm30_0 (Array Int Int)) (mainv%sm33_0 (Array Int Int)) (mainv%sm34_0 (Array Int Int)) (mainv%sm35_0 (Array Int Int)) (mainv%sm36_0 (Array Int Int)) (mainv%sm37_0 (Array Int Int)) (mainv%sm38_0 (Array Int Int)) (mainv%sm39_0 (Array Int Int)) (mainv%sm45_0 (Array Int Int)) (mainv%sm46_0 (Array Int Int)) (mainv%sm47_0 (Array Int Int)) (mainv%sm48_0 (Array Int Int)) (mainv%sm49_0 (Array Int Int)) (mainv%sm50_0 (Array Int Int)) (mainv%_18_0 Int)) Bool false)
)
